100
128
4
14
13
36
8
20
16
7
17
7
8
20
20
4
14
29
3
2
35
14
8
5
8
5
59
5
1
6
7
13
1
44
10
13
9
33
7
3
41
23
7
14
8
37
21
5
8
4
37
3
16
33
8
13
6
3
2
27
64
1
15
53
2
9
41
13
41
47
55
54
52
64
16
44
42
6
22
64
3
48
16
60
40
40
38
28
48
31
2
13
27
32
56
48
24
4
24
63
38
64